Set parameter TokenServer to value "hpc-licenses.hpcc.usc.edu"
Set parameter TimeLimit to value 3600
Gurobi Optimizer version 9.5.1 build v9.5.1rc2 (linux64)
Thread count: 20 physical cores, 20 logical processors, using up to 20 threads
Optimize a model with 6007 rows, 4529 columns and 24534 nonzeros
Model fingerprint: 0x302419df
Variable types: 4506 continuous, 23 integer (23 binary)
Coefficient statistics:
  Matrix range     [1e+00, 1e+00]
  Objective range  [3e-03, 1e+00]
  Bounds range     [1e+00, 1e+00]
  RHS range        [1e+00, 3e+01]
Presolve removed 1520 rows and 1515 columns
Presolve time: 0.06s
Presolved: 4487 rows, 3014 columns, 21975 nonzeros
Variable types: 2994 continuous, 20 integer (20 binary)
Found heuristic solution: objective 220.5727978

Root relaxation: objective 2.239787e+02, 2314 iterations, 0.09 seconds (0.14 work units)

    Nodes    |    Current Node    |     Objective Bounds      |     Work
 Expl Unexpl |  Obj  Depth IntInf | Incumbent    BestBd   Gap | It/Node Time

     0     0  223.97873    0    5  220.57280  223.97873  1.54%     -    0s
     0     0  223.89058    0    3  220.57280  223.89058  1.50%     -    0s
H    0     0                     223.6266883  223.89058  0.12%     -    0s
     0     0  223.85301    0    4  223.62669  223.85301  0.10%     -    0s
     0     0  223.85301    0    5  223.62669  223.85301  0.10%     -    1s
     0     0  223.64263    0    3  223.62669  223.64263  0.01%     -    1s

Cutting planes:
  Gomory: 3
  Implied bound: 44
  MIR: 95
  Flow cover: 4
  RLT: 5
  Relax-and-lift: 3

Explored 1 nodes (4130 simplex iterations) in 1.79 seconds (0.69 work units)
Thread count was 20 (of 20 available processors)

Solution count 2: 223.627 220.573 

Optimal solution found (tolerance 1.00e-04)
Best objective 2.236266882616e+02, best bound 2.236426341416e+02, gap 0.0071%



#########node  1
V1.9
#########node  2
0.5,0.5
#########node  3
1.0,0.0


Total Solving Time 2.1695210933685303
obj value 223.62668826158725
